66
225
89
31
335
174
151
206
236
310
45
228
136
204
201
212
152
138
330
276
150
290
337
159
209
293
81
307
32
153
253
72
111
260
153
227
130
7
77
293
102
326
308
331
199
195
211
21
274
128
8
185
138
153
332
6
205
336
253
49
126
324
103
263
276
155
219
17
146
97
230
7
235
200
62
261
231
117
93
260
256
123
170
121
313
222
70
209
166
338
281
134
17
8
81
226
281
217
63
318
